Route #1: 1 2 29 15 21 61 28 22 1 
Route #2: 1 62 51 16 49 23 43 41 42 64 1 
Route #3: 1 1 33 6 35 40 44 3 1 
Route #4: 1 56 55 32 53 7 34 26 1 
Route #5: 1 17 67 27 37 48 4 1 
Route #6: 1 63 50 25 38 14 54 57 1 
Route #7: 1 45 52 8 13 5 20 36 69 1 
Route #8: 1 30 46 65 58 9 12 68 1 
Route #9: 1 24 18 39 31 10 19 60 1 
Route #10: 1 47 59 66 11 1 

Cost 1422.35
Time 1.0354


 * Another infos *

 Iterations: 70 Time: 1.0354 sec - 0.0173 min - 0.0003 horas
0.0000 h 0.0173 min
Problem dimension: 70
